g3 0 1 0	# problem 3240
 516 407 1 0 396	# vars, constraints, objectives, ranges, eqns
 220 0	# nonlinear constraints, objectives
 0 0	# network constraints: nonlinear, linear
 130 0 0	# nonlinear vars in constraints, objectives, both
 0 0 0 1	# linear network variables; functions; arith, flags
 0 0 0 0 0	# discrete variables: binary, integer, nonlinear (b,c,o)
 1907 10	# nonzeros in Jacobian, gradients
 0 0	# max name lengths: constraints, variables
 0 0 0 0 0	# common exprs: b,c,o,c1,o1
b
0 0 1e+06
0 0 1e+06
0 0 1e+06
0 0 1e+06
0 0 1e+06
0 0 1e+06
0 0 1e+06
0 0 1e+06
0 0 1e+06
0 0 1e+06
0 0 1e+06
0 0 1e+06
0 0 1e+06
0 0 1e+06
0 0 1e+06
0 0 1e+06
0 0 1e+06
0 0 1e+06
0 0 1e+06
0 0 1e+06
0 0 1e+06
0 0 1e+06
0 0 1e+06
0 0 1e+06
0 0 1e+06
0 0 1e+06
0 0 1e+06
0 0 1e+06
0 0 1e+06
0 0 1e+06
0 0 1e+06
0 0 1e+06
0 0 1e+06
0 0 1e+06
0 0 1e+06
0 0 1e+06
0 0 1e+06
0 0 1e+06
0 0 1e+06
0 0 1e+06
0 0 1e+06
0 0 1e+06
0 0 1e+06
0 0 1e+06
0 0 1e+06
0 0 1e+06
0 0 1e+06
0 0 1e+06
0 0 1e+06
0 0 1e+06
0 0 1e+06
0 0 1e+06
0 0 1e+06
0 0 1e+06
0 0 1e+06
0 0 1e+06
0 0 1e+06
0 0 1e+06
0 0 1e+06
0 0 1e+06
0 0 1e+06
0 0 1e+06
0 0 1e+06
0 0 1e+06
0 0 1e+06
0 0 1e+06
0 0 1e+06
0 0 1e+06
0 0 1e+06
0 0 1e+06
0 0 1e+06
0 0 1e+06
0 0 1e+06
0 0 1e+06
0 0 1e+06
0 0 1e+06
0 0 1e+06
0 0 1e+06
0 0 1e+06
0 0 1e+06
0 0 1e+06
0 0 1e+06
0 0 1e+06
0 0 1e+06
0 0 1e+06
0 0 1e+06
0 0 1e+06
0 0 1e+06
0 0 1e+06
0 0 1e+06
0 0 1e+06
0 0 1e+06
0 0 1e+06
0 0 1e+06
0 0 1e+06
0 0 1e+06
0 0 1e+06
0 0 1e+06
0 0 1e+06
0 0 1e+06
0 0 1e+06
0 0 1e+06
0 0 1e+06
0 0 1e+06
0 0 1e+06
0 0 1e+06
0 0 1e+06
0 0 1e+06
0 0 1e+06
0 0 1e+06
0 0 1e+06
0 0 1e+06
0 0 1e+06
0 0 1e+06
0 0 1e+06
0 0 1e+06
0 0 1e+06
0 0 1e+06
0 0 1e+06
0 0 1e+06
0 0 1e+06
0 0 1e+06
0 0 1e+06
0 0 1e+06
0 0 1e+06
0 0 1e+06
0 0 1e+06
0 0 1e+06
0 0 1e+06
0 0 1e+06
0 0 1e+06
0 0 1e+06
0 0 1e+06
0 0 1e+06
0 0 1e+06
0 0 1e+06
0 0 1e+06
0 0 1e+06
0 0 1e+06
0 0 1e+06
0 0 1e+06
0 0 1e+06
0 0 1e+06
0 0 1e+06
0 0 1e+06
0 0 1e+06
0 0 1e+06
0 0 1e+06
0 0 1e+06
0 0 1e+06
0 0 1e+06
0 0 1e+06
0 0 1e+06
0 0 1e+06
0 0 1e+06
0 0 1e+06
0 0 1e+06
0 0 1e+06
0 0 1e+06
0 0 1e+06
0 0 1e+06
0 0 1e+06
0 0 1e+06
0 0 1e+06
0 0 1e+06
0 0 1e+06
0 0 1e+06
0 0 1e+06
0 0 1e+06
0 0 1e+06
0 0 1e+06
0 0 1e+06
0 0 1e+06
0 0 1e+06
0 0 1e+06
0 0 1e+06
0 0 1e+06
0 0 1e+06
0 0 1e+06
0 0 1e+06
0 0 1e+06
0 0 1e+06
0 0 1e+06
0 0 1e+06
0 0 1e+06
0 0 1e+06
0 0 1e+06
0 0 1e+06
0 0 1e+06
0 0 1e+06
0 0 1e+06
0 0 1e+06
0 0 1e+06
0 0 1e+06
0 0 1e+06
0 0 1e+06
0 0 1e+06
0 0 1e+06
0 0 1e+06
0 0 1e+06
0 0 1e+06
0 0 1e+06
0 0 1e+06
0 0 1e+06
0 0 1e+06
0 0 1e+06
0 0 1e+06
0 0 1e+06
0 0 1e+06
0 0 1e+06
0 0 1e+06
0 0 1e+06
0 0 1e+06
0 0 1e+06
0 0 1e+06
0 0 1e+06
0 0 1e+06
0 0 1e+06
0 0 1e+06
0 0 1e+06
0 0 1e+06
0 0 1e+06
0 0 1e+06
0 0 1e+06
0 0 1e+06
0 0 1e+06
0 0 1e+06
0 0 1e+06
0 0 1e+06
0 0 1e+06
0 0 1e+06
0 0 1e+06
0 0 1e+06
0 0 1e+06
0 0 1e+06
0 0 1e+06
0 0 1e+06
0 0 1e+06
0 0 1e+06
0 0 1e+06
0 0 1e+06
0 0 1e+06
0 0 1e+06
0 0 1e+06
0 0 1e+06
0 0 1e+06
0 0 1e+06
0 0 1e+06
0 0 1e+06
0 0 1e+06
0 0 1e+06
0 0 1e+06
0 0 1e+06
0 0 1e+06
0 0 1e+06
0 0 1e+06
0 0 1e+06
0 0 1e+06
0 0 1e+06
0 0 1e+06
0 0 1e+06
0 0 1e+06
0 0 1e+06
0 0 1e+06
0 0 1e+06
0 0 1e+06
0 0 1e+06
0 0 1e+06
0 0 1e+06
0 0 1e+06
0 0 1e+06
0 0 1e+06
0 0 1e+06
0 0 1e+06
0 0 1e+06
0 0 1e+06
0 0 1e+06
0 0 1e+06
0 0 1e+06
0 0 1e+06
0 0 1e+06
0 0 1e+06
0 0 1e+06
0 0 1e+06
0 0 1e+06
0 0 1e+06
0 0 1e+06
0 0 1e+06
0 0 1e+06
0 0 1e+06
0 0 1e+06
0 0 1e+06
0 0 1e+06
0 0 1e+06
0 0 1e+06
0 0 1e+06
0 0 1e+06
0 0 1e+06
0 0 1e+06
0 0 1e+06
0 0 1e+06
0 0 1e+06
0 0 1e+06
0 0 1e+06
0 0 1e+06
0 0 1e+06
0 0 1e+06
0 0 1e+06
0 0 1e+06
0 0 1e+06
0 0 1e+06
0 0 1e+06
0 0 1e+06
0 0 1e+06
0 0 1e+06
0 0 1e+06
0 0 1e+06
0 0 1e+06
0 0 1e+06
0 0 1e+06
0 0 1e+06
0 0 1e+06
0 0 1e+06
0 0 1e+06
0 0 1e+06
0 0 1e+06
0 0 1e+06
0 0 1e+06
0 0 1e+06
0 0 1e+06
0 0 1e+06
0 0 1e+06
0 0 1e+06
0 0 1e+06
0 0 1e+06
0 0 1e+06
0 0 1e+06
0 0 1e+06
0 0 1e+06
0 0 1e+06
0 0 1e+06
0 0 1e+06
0 0 1e+06
0 0 1e+06
0 0 1e+06
0 0 1e+06
0 0 1e+06
0 0 1e+06
0 0 1e+06
0 0 1e+06
0 0 1e+06
0 0 1e+06
0 0 1e+06
0 0 1e+06
0 0 1e+06
0 0 1e+06
0 0 1e+06
0 0 1e+06
0 0 1e+06
0 0 1e+06
0 0 1e+06
0 0 1e+06
0 0 1e+06
0 0 1e+06
0 0 1e+06
0 0 1e+06
0 0 1e+06
0 0 1e+06
0 0 1e+06
0 0 1e+06
0 0 1e+06
0 0 1e+06
0 0 1e+06
0 0 1e+06
0 0 1e+06
0 0 1e+06
0 0 1e+06
0 0 1e+06
0 0 1e+06
0 0 1e+06
0 0 1e+06
0 0 1e+06
0 0 1e+06
0 0 1e+06
0 0 1e+06
0 0 1e+06
0 0 1e+06
0 0 1e+06
0 0 1e+06
0 0 1e+06
0 0 1e+06
0 0 1e+06
0 0 1e+06
0 0 1e+06
0 0 1e+06
0 0 1e+06
0 0 1e+06
0 0 1e+06
0 0 1e+06
0 0 1e+06
0 0 1e+06
0 0 1e+06
0 0 1e+06
0 0 1e+06
0 0 1e+06
0 0 1e+06
0 0 1e+06
0 0 1e+06
0 0 1e+06
0 0 1e+06
0 0 1e+06
0 0 1e+06
0 0 1e+06
0 0 1e+06
0 0 1e+06
0 0 1e+06
0 0 1e+06
0 0 1e+06
0 0 1e+06
0 0 1e+06
0 0 1e+06
0 0 1e+06
0 0 1e+06
0 0 1e+06
0 0 1e+06
0 0 1e+06
0 0 1e+06
0 0 1e+06
0 0 1e+06
0 0 1e+06
0 0 1e+06
0 0 1e+06
0 0 1e+06
0 0 1e+06
0 0 1e+06
0 0 1e+06
0 0 1e+06
0 0 1e+06
0 0 1e+06
0 0 1e+06
0 0 1e+06
0 0 1e+06
0 0 1e+06
0 0 1e+06
0 0 1e+06
0 0 1e+06
0 0 1e+06
0 0 1e+06
0 0 1e+06
0 0 1e+06
0 0 1e+06
0 0 1e+06
0 0 1e+06
0 0 1e+06
0 0 1e+06
0 0 1e+06
0 0 1e+06
0 0 1e+06
0 0 1e+06
0 0 1e+06
0 0 1e+06
0 0 1e+06
0 0 1e+06
0 0 1e+06
0 0 1e+06
0 0 1e+06
0 0 1e+06
0 0 1e+06
0 0 1e+06
0 0 1e+06
0 0 1e+06
0 0 1e+06
0 0 1e+06
0 0 1e+06
0 0 1e+06
0 0 1e+06
0 0 1e+06
0 0 1e+06
0 0 1e+06
0 0 1e+06
0 0 1e+06
0 0 1e+06
0 0 1e+06
0 0 1e+06
0 0 1e+06
0 0 1e+06
0 0 1e+06
0 0 1e+06
0 0 1e+06
0 0 1e+06
0 0 1e+06
0 0 1e+06
0 0 1e+06
0 0 1e+06
0 0 1e+06
0 0 1e+06
0 0 1e+06
0 0 1e+06
0 0 1e+06
0 0 1e+06
0 0 1e+06
0 0 1e+06
0 0 1e+06
0 0 1e+06
0 0 1e+06
0 0 1e+06
0 0 1e+06
0 0 1e+06
0 0 1e+06
0 0 1e+06
0 0 1e+06
0 0 1e+06
0 0 1e+06
0 0 1e+06
0 0 1e+06
0 0 1e+06
r
4 0
4 0
4 0
4 0
4 0
4 0
4 0
4 0
4 0
4 0
4 0
4 0
4 0
4 0
4 0
4 0
4 0
4 0
4 0
4 0
4 0
4 0
4 0
4 0
4 0
4 0
4 0
4 0
4 0
4 0
4 0
4 0
4 0
4 0
4 0
4 0
4 0
4 0
4 0
4 0
4 0
4 0
4 0
4 0
4 0
4 0
4 0
4 0
4 0
4 0
4 0
4 0
4 0
4 0
4 0
4 0
4 0
4 0
4 0
4 0
4 0
4 0
4 0
4 0
4 0
4 0
4 0
4 0
4 0
4 0
4 0
4 0
4 0
4 0
4 0
4 0
4 0
4 0
4 0
4 0
4 0
4 0
4 0
4 0
4 0
4 0
4 0
4 0
4 0
4 0
4 0
4 0
4 0
4 0
4 0
4 0
4 0
4 0
4 0
4 0
4 0
4 0
4 0
4 0
4 0
4 0
4 0
4 0
4 0
4 0
4 0
4 0
4 0
4 0
4 0
4 0
4 0
4 0
4 0
4 0
4 0
4 0
4 0
4 0
4 0
4 0
4 0
4 0
4 0
4 0
4 0
4 0
4 0
4 0
4 0
4 0
4 0
4 0
4 0
4 0
4 0
4 0
4 0
4 0
4 0
4 0
4 0
4 0
4 0
4 0
4 0
4 0
4 0
4 0
4 0
4 0
4 0
4 0
4 0
4 0
4 0
4 0
4 0
4 0
4 0
4 0
4 0
4 0
4 0
4 0
4 0
4 0
4 0
4 0
4 0
4 0
4 0
4 0
4 0
4 0
4 0
4 0
4 0
4 0
4 0
4 0
4 0
4 0
4 0
4 0
4 0
4 0
4 0
4 0
4 0
4 0
4 0
4 0
4 0
4 0
4 0
4 0
4 0
4 0
4 0
4 0
4 0
4 0
4 0
4 0
4 0
4 0
4 0
4 0
4 0
4 0
4 0
4 0
4 0
4 0
4 -90
4 -350
4 -200
4 -40
4 -130
4 0
4 0
4 0
4 0
4 0
4 0
4 0
4 0
4 0
4 0
4 0
4 0
4 0
4 0
4 0
4 0
4 0
4 0
4 0
4 0
4 0
4 -29700
4 -17500
4 -30000
4 -9600
4 -15600
4 0
4 0
4 0
4 0
4 0
4 0
4 0
4 0
4 0
4 0
4 0
4 0
4 0
4 0
4 0
4 0
4 0
4 0
4 0
4 0
4 0
4 0
4 0
4 0
4 0
4 0
4 0
4 0
4 0
4 0
4 0
4 0
4 0
4 0
4 0
4 0
4 0
4 0
4 0
4 0
4 0
4 0
4 0
4 0
4 0
4 0
4 0
4 0
4 0
4 0
4 0
4 0
4 0
4 0
4 0
4 0
4 0
4 0
4 0
4 0
4 0
4 0
4 0
4 0
4 0
4 0
4 0
4 0
4 0
4 0
4 0
4 0
4 0
4 0
4 0
4 0
4 0
4 0
4 0
4 0
4 0
4 0
4 0
4 0
4 0
4 0
4 0
4 0
4 0
4 0
4 0
4 0
4 0
4 0
4 0
4 0
4 0
4 0
4 0
4 0
4 0
4 0
4 0
4 0
4 0
4 0
4 0
4 0
4 0
4 0
4 1
4 1
4 1
4 1
4 1
1 0
1 0
1 0
1 0
1 0
1 0
1 0
1 0
1 0
1 0
4 0
4 0
4 0
4 0
4 0
4 0
4 0
4 0
4 0
4 0
4 0
4 0
4 0
4 0
4 0
4 0
4 0
4 0
4 0
4 0
4 1
4 1
4 1
4 1
4 1
4 1
4 1
4 1
4 1
4 1
1 0
C0
o2
v20
v10
C1
o2
v21
v10
C2
o2
v22
v10
C3
o2
v23
v10
C4
o2
v24
v10
C5
o2
v25
v10
C6
o2
v26
v10
C7
o2
v27
v10
C8
o2
v28
v10
C9
o2
v29
v10
C10
o2
v31
v11
C11
o2
v32
v11
C12
o2
v33
v11
C13
o2
v34
v11
C14
o2
v35
v11
C15
o2
v36
v11
C16
o2
v37
v11
C17
o2
v38
v11
C18
o2
v39
v11
C19
o2
v40
v11
C20
o2
v42
v12
C21
o2
v43
v12
C22
o2
v44
v12
C23
o2
v45
v12
C24
o2
v46
v12
C25
o2
v47
v12
C26
o2
v48
v12
C27
o2
v49
v12
C28
o2
v50
v12
C29
o2
v51
v12
C30
o2
v53
v13
C31
o2
v54
v13
C32
o2
v55
v13
C33
o2
v56
v13
C34
o2
v57
v13
C35
o2
v58
v13
C36
o2
v59
v13
C37
o2
v60
v13
C38
o2
v61
v13
C39
o2
v62
v13
C40
o2
v64
v14
C41
o2
v65
v14
C42
o2
v66
v14
C43
o2
v67
v14
C44
o2
v68
v14
C45
o2
v69
v14
C46
o2
v70
v14
C47
o2
v71
v14
C48
o2
v72
v14
C49
o2
v73
v14
C50
o2
v75
v15
C51
o2
v76
v15
C52
o2
v77
v15
C53
o2
v78
v15
C54
o2
v79
v15
C55
o2
v80
v15
C56
o2
v81
v15
C57
o2
v82
v15
C58
o2
v83
v15
C59
o2
v84
v15
C60
o2
v86
v16
C61
o2
v87
v16
C62
o2
v88
v16
C63
o2
v89
v16
C64
o2
v90
v16
C65
o2
v91
v16
C66
o2
v92
v16
C67
o2
v93
v16
C68
o2
v94
v16
C69
o2
v95
v16
C70
o2
v97
v17
C71
o2
v98
v17
C72
o2
v99
v17
C73
o2
v100
v17
C74
o2
v101
v17
C75
o2
v102
v17
C76
o2
v103
v17
C77
o2
v104
v17
C78
o2
v105
v17
C79
o2
v106
v17
C80
o2
v108
v18
C81
o2
v109
v18
C82
o2
v110
v18
C83
o2
v111
v18
C84
o2
v112
v18
C85
o2
v113
v18
C86
o2
v114
v18
C87
o2
v115
v18
C88
o2
v116
v18
C89
o2
v117
v18
C90
o2
v119
v19
C91
o2
v120
v19
C92
o2
v121
v19
C93
o2
v122
v19
C94
o2
v123
v19
C95
o2
v124
v19
C96
o2
v125
v19
C97
o2
v126
v19
C98
o2
v127
v19
C99
o2
v128
v19
C100
o2
v30
v10
C101
o2
v41
v11
C102
o2
v52
v12
C103
o2
v63
v13
C104
o2
v74
v14
C105
o2
v85
v15
C106
o2
v96
v16
C107
o2
v107
v17
C108
o2
v118
v18
C109
o2
v129
v19
C110
o2
v20
v0
C111
o2
v21
v0
C112
o2
v22
v0
C113
o2
v23
v0
C114
o2
v24
v0
C115
o2
v25
v0
C116
o2
v26
v0
C117
o2
v27
v0
C118
o2
v28
v0
C119
o2
v29
v0
C120
o2
v31
v1
C121
o2
v32
v1
C122
o2
v33
v1
C123
o2
v34
v1
C124
o2
v35
v1
C125
o2
v36
v1
C126
o2
v37
v1
C127
o2
v38
v1
C128
o2
v39
v1
C129
o2
v40
v1
C130
o2
v42
v2
C131
o2
v43
v2
C132
o2
v44
v2
C133
o2
v45
v2
C134
o2
v46
v2
C135
o2
v47
v2
C136
o2
v48
v2
C137
o2
v49
v2
C138
o2
v50
v2
C139
o2
v51
v2
C140
o2
v53
v3
C141
o2
v54
v3
C142
o2
v55
v3
C143
o2
v56
v3
C144
o2
v57
v3
C145
o2
v58
v3
C146
o2
v59
v3
C147
o2
v60
v3
C148
o2
v61
v3
C149
o2
v62
v3
C150
o2
v64
v4
C151
o2
v65
v4
C152
o2
v66
v4
C153
o2
v67
v4
C154
o2
v68
v4
C155
o2
v69
v4
C156
o2
v70
v4
C157
o2
v71
v4
C158
o2
v72
v4
C159
o2
v73
v4
C160
o2
v75
v5
C161
o2
v76
v5
C162
o2
v77
v5
C163
o2
v78
v5
C164
o2
v79
v5
C165
o2
v80
v5
C166
o2
v81
v5
C167
o2
v82
v5
C168
o2
v83
v5
C169
o2
v84
v5
C170
o2
v86
v6
C171
o2
v87
v6
C172
o2
v88
v6
C173
o2
v89
v6
C174
o2
v90
v6
C175
o2
v91
v6
C176
o2
v92
v6
C177
o2
v93
v6
C178
o2
v94
v6
C179
o2
v95
v6
C180
o2
v97
v7
C181
o2
v98
v7
C182
o2
v99
v7
C183
o2
v100
v7
C184
o2
v101
v7
C185
o2
v102
v7
C186
o2
v103
v7
C187
o2
v104
v7
C188
o2
v105
v7
C189
o2
v106
v7
C190
o2
v108
v8
C191
o2
v109
v8
C192
o2
v110
v8
C193
o2
v111
v8
C194
o2
v112
v8
C195
o2
v113
v8
C196
o2
v114
v8
C197
o2
v115
v8
C198
o2
v116
v8
C199
o2
v117
v8
C200
o2
v119
v9
C201
o2
v120
v9
C202
o2
v121
v9
C203
o2
v122
v9
C204
o2
v123
v9
C205
o2
v124
v9
C206
o2
v125
v9
C207
o2
v126
v9
C208
o2
v127
v9
C209
o2
v128
v9
C210
o2
v30
v0
C211
o2
v41
v1
C212
o2
v52
v2
C213
o2
v63
v3
C214
o2
v74
v4
C215
o2
v85
v5
C216
o2
v96
v6
C217
o2
v107
v7
C218
o2
v118
v8
C219
o2
v129
v9
C220
n0
C221
n0
C222
n0
C223
n0
C224
n0
C225
n0
C226
n0
C227
n0
C228
n0
C229
n0
C230
n0
C231
n0
C232
n0
C233
n0
C234
n0
C235
n0
C236
n0
C237
n0
C238
n0
C239
n0
C240
n0
C241
n0
C242
n0
C243
n0
C244
n0
C245
n0
C246
n0
C247
n0
C248
n0
C249
n0
C250
n0
C251
n0
C252
n0
C253
n0
C254
n0
C255
n0
C256
n0
C257
n0
C258
n0
C259
n0
C260
n0
C261
n0
C262
n0
C263
n0
C264
n0
C265
n0
C266
n0
C267
n0
C268
n0
C269
n0
C270
n0
C271
n0
C272
n0
C273
n0
C274
n0
C275
n0
C276
n0
C277
n0
C278
n0
C279
n0
C280
n0
C281
n0
C282
n0
C283
n0
C284
n0
C285
n0
C286
n0
C287
n0
C288
n0
C289
n0
C290
n0
C291
n0
C292
n0
C293
n0
C294
n0
C295
n0
C296
n0
C297
n0
C298
n0
C299
n0
C300
n0
C301
n0
C302
n0
C303
n0
C304
n0
C305
n0
C306
n0
C307
n0
C308
n0
C309
n0
C310
n0
C311
n0
C312
n0
C313
n0
C314
n0
C315
n0
C316
n0
C317
n0
C318
n0
C319
n0
C320
n0
C321
n0
C322
n0
C323
n0
C324
n0
C325
n0
C326
n0
C327
n0
C328
n0
C329
n0
C330
n0
C331
n0
C332
n0
C333
n0
C334
n0
C335
n0
C336
n0
C337
n0
C338
n0
C339
n0
C340
n0
C341
n0
C342
n0
C343
n0
C344
n0
C345
n0
C346
n0
C347
n0
C348
n0
C349
n0
C350
n0
C351
n0
C352
n0
C353
n0
C354
n0
C355
n0
C356
n0
C357
n0
C358
n0
C359
n0
C360
n0
C361
n0
C362
n0
C363
n0
C364
n0
C365
n0
C366
n0
C367
n0
C368
n0
C369
n0
C370
n0
C371
n0
C372
n0
C373
n0
C374
n0
C375
n0
C376
n0
C377
n0
C378
n0
C379
n0
C380
n0
C381
n0
C382
n0
C383
n0
C384
n0
C385
n0
C386
n0
C387
n0
C388
n0
C389
n0
C390
n0
C391
n0
C392
n0
C393
n0
C394
n0
C395
n0
C396
n0
C397
n0
C398
n0
C399
n0
C400
n0
C401
n0
C402
n0
C403
n0
C404
n0
C405
n0
C406
n0
O0 0
n0
k515
14
28
42
56
70
84
98
112
126
140
153
166
179
192
205
218
231
244
257
270
273
276
279
282
285
288
291
294
297
300
303
306
309
312
315
318
321
324
327
330
333
336
339
342
345
348
351
354
357
360
363
366
369
372
375
378
381
384
387
390
393
396
399
402
405
408
411
414
417
420
423
426
429
432
435
438
441
444
447
450
453
456
459
462
465
468
471
474
477
480
483
486
489
492
495
498
501
504
507
510
513
516
519
522
525
528
531
534
537
540
543
546
549
552
555
558
561
564
567
570
573
576
579
582
585
588
591
594
597
600
603
606
609
612
615
618
621
624
627
630
633
636
639
642
645
648
651
654
657
660
663
666
669
672
675
678
681
684
687
690
693
696
699
702
705
708
711
714
717
720
723
726
729
732
735
738
741
744
747
750
753
756
759
762
765
768
771
774
777
780
783
786
789
792
795
798
801
804
807
810
813
816
819
822
825
828
831
834
837
840
843
846
849
852
855
858
861
864
867
870
873
876
879
882
885
888
891
894
897
900
903
906
909
912
915
918
921
924
927
930
933
936
939
942
945
948
951
954
957
960
963
966
969
972
975
978
981
984
987
990
993
996
999
1002
1005
1008
1011
1014
1017
1020
1023
1026
1029
1032
1035
1038
1041
1044
1047
1050
1053
1056
1059
1062
1065
1068
1071
1074
1077
1080
1083
1086
1089
1092
1095
1097
1100
1104
1108
1112
1116
1120
1124
1128
1132
1136
1140
1143
1147
1151
1155
1159
1163
1167
1171
1175
1179
1183
1186
1190
1194
1198
1202
1206
1210
1214
1218
1222
1226
1229
1233
1237
1241
1245
1249
1253
1257
1261
1265
1269
1272
1276
1280
1284
1288
1292
1296
1300
1304
1308
1312
1315
1318
1321
1324
1327
1330
1333
1336
1339
1342
1345
1348
1351
1354
1357
1360
1363
1366
1369
1372
1375
1378
1381
1384
1387
1390
1393
1396
1399
1402
1405
1408
1411
1414
1417
1420
1423
1426
1429
1432
1435
1438
1441
1444
1447
1450
1453
1456
1459
1462
1465
1468
1471
1474
1477
1481
1485
1489
1493
1497
1501
1505
1509
1513
1517
1521
1525
1529
1533
1537
1541
1545
1549
1553
1557
1561
1565
1569
1573
1577
1581
1585
1589
1593
1597
1601
1605
1609
1613
1617
1621
1625
1629
1633
1637
1641
1645
1649
1653
1657
1661
1665
1669
1673
1677
1681
1685
1689
1693
1697
1701
1705
1709
1713
1717
1721
1725
1729
1733
1737
1741
1745
1749
1753
1757
1761
1765
1769
1773
1777
1781
1785
1789
1793
1797
1801
1805
1809
1813
1817
1821
1825
1829
1833
1837
1841
1845
1849
1853
1857
1861
1865
1869
1873
1877
1880
1883
1886
1889
1892
1895
1898
1901
1904
J0 3
10 0
20 0
406 -1
J1 3
10 0
21 0
416 -1
J2 3
10 0
22 0
426 -1
J3 3
10 0
23 0
436 -1
J4 3
10 0
24 0
446 -1
J5 3
10 0
25 0
456 -1
J6 3
10 0
26 0
466 -1
J7 3
10 0
27 0
476 -1
J8 3
10 0
28 0
486 -1
J9 3
10 0
29 0
496 -1
J10 3
11 0
31 0
407 -1
J11 3
11 0
32 0
417 -1
J12 3
11 0
33 0
427 -1
J13 3
11 0
34 0
437 -1
J14 3
11 0
35 0
447 -1
J15 3
11 0
36 0
457 -1
J16 3
11 0
37 0
467 -1
J17 3
11 0
38 0
477 -1
J18 3
11 0
39 0
487 -1
J19 3
11 0
40 0
497 -1
J20 3
12 0
42 0
408 -1
J21 3
12 0
43 0
418 -1
J22 3
12 0
44 0
428 -1
J23 3
12 0
45 0
438 -1
J24 3
12 0
46 0
448 -1
J25 3
12 0
47 0
458 -1
J26 3
12 0
48 0
468 -1
J27 3
12 0
49 0
478 -1
J28 3
12 0
50 0
488 -1
J29 3
12 0
51 0
498 -1
J30 3
13 0
53 0
409 -1
J31 3
13 0
54 0
419 -1
J32 3
13 0
55 0
429 -1
J33 3
13 0
56 0
439 -1
J34 3
13 0
57 0
449 -1
J35 3
13 0
58 0
459 -1
J36 3
13 0
59 0
469 -1
J37 3
13 0
60 0
479 -1
J38 3
13 0
61 0
489 -1
J39 3
13 0
62 0
499 -1
J40 3
14 0
64 0
410 -1
J41 3
14 0
65 0
420 -1
J42 3
14 0
66 0
430 -1
J43 3
14 0
67 0
440 -1
J44 3
14 0
68 0
450 -1
J45 3
14 0
69 0
460 -1
J46 3
14 0
70 0
470 -1
J47 3
14 0
71 0
480 -1
J48 3
14 0
72 0
490 -1
J49 3
14 0
73 0
500 -1
J50 3
15 0
75 0
411 -1
J51 3
15 0
76 0
421 -1
J52 3
15 0
77 0
431 -1
J53 3
15 0
78 0
441 -1
J54 3
15 0
79 0
451 -1
J55 3
15 0
80 0
461 -1
J56 3
15 0
81 0
471 -1
J57 3
15 0
82 0
481 -1
J58 3
15 0
83 0
491 -1
J59 3
15 0
84 0
501 -1
J60 3
16 0
86 0
412 -1
J61 3
16 0
87 0
422 -1
J62 3
16 0
88 0
432 -1
J63 3
16 0
89 0
442 -1
J64 3
16 0
90 0
452 -1
J65 3
16 0
91 0
462 -1
J66 3
16 0
92 0
472 -1
J67 3
16 0
93 0
482 -1
J68 3
16 0
94 0
492 -1
J69 3
16 0
95 0
502 -1
J70 3
17 0
97 0
413 -1
J71 3
17 0
98 0
423 -1
J72 3
17 0
99 0
433 -1
J73 3
17 0
100 0
443 -1
J74 3
17 0
101 0
453 -1
J75 3
17 0
102 0
463 -1
J76 3
17 0
103 0
473 -1
J77 3
17 0
104 0
483 -1
J78 3
17 0
105 0
493 -1
J79 3
17 0
106 0
503 -1
J80 3
18 0
108 0
414 -1
J81 3
18 0
109 0
424 -1
J82 3
18 0
110 0
434 -1
J83 3
18 0
111 0
444 -1
J84 3
18 0
112 0
454 -1
J85 3
18 0
113 0
464 -1
J86 3
18 0
114 0
474 -1
J87 3
18 0
115 0
484 -1
J88 3
18 0
116 0
494 -1
J89 3
18 0
117 0
504 -1
J90 3
19 0
119 0
415 -1
J91 3
19 0
120 0
425 -1
J92 3
19 0
121 0
435 -1
J93 3
19 0
122 0
445 -1
J94 3
19 0
123 0
455 -1
J95 3
19 0
124 0
465 -1
J96 3
19 0
125 0
475 -1
J97 3
19 0
126 0
485 -1
J98 3
19 0
127 0
495 -1
J99 3
19 0
128 0
505 -1
J100 3
10 0
30 0
506 -1
J101 3
11 0
41 0
507 -1
J102 3
12 0
52 0
508 -1
J103 3
13 0
63 0
509 -1
J104 3
14 0
74 0
510 -1
J105 3
15 0
85 0
511 -1
J106 3
16 0
96 0
512 -1
J107 3
17 0
107 0
513 -1
J108 3
18 0
118 0
514 -1
J109 3
19 0
129 0
515 -1
J110 3
0 0
20 0
185 -1
J111 3
0 0
21 0
195 -1
J112 3
0 0
22 0
205 -1
J113 3
0 0
23 0
215 -1
J114 3
0 0
24 0
225 -1
J115 3
0 0
25 0
235 -1
J116 3
0 0
26 0
245 -1
J117 3
0 0
27 0
255 -1
J118 3
0 0
28 0
265 -1
J119 3
0 0
29 0
275 -1
J120 3
1 0
31 0
186 -1
J121 3
1 0
32 0
196 -1
J122 3
1 0
33 0
206 -1
J123 3
1 0
34 0
216 -1
J124 3
1 0
35 0
226 -1
J125 3
1 0
36 0
236 -1
J126 3
1 0
37 0
246 -1
J127 3
1 0
38 0
256 -1
J128 3
1 0
39 0
266 -1
J129 3
1 0
40 0
276 -1
J130 3
2 0
42 0
187 -1
J131 3
2 0
43 0
197 -1
J132 3
2 0
44 0
207 -1
J133 3
2 0
45 0
217 -1
J134 3
2 0
46 0
227 -1
J135 3
2 0
47 0
237 -1
J136 3
2 0
48 0
247 -1
J137 3
2 0
49 0
257 -1
J138 3
2 0
50 0
267 -1
J139 3
2 0
51 0
277 -1
J140 3
3 0
53 0
188 -1
J141 3
3 0
54 0
198 -1
J142 3
3 0
55 0
208 -1
J143 3
3 0
56 0
218 -1
J144 3
3 0
57 0
228 -1
J145 3
3 0
58 0
238 -1
J146 3
3 0
59 0
248 -1
J147 3
3 0
60 0
258 -1
J148 3
3 0
61 0
268 -1
J149 3
3 0
62 0
278 -1
J150 3
4 0
64 0
189 -1
J151 3
4 0
65 0
199 -1
J152 3
4 0
66 0
209 -1
J153 3
4 0
67 0
219 -1
J154 3
4 0
68 0
229 -1
J155 3
4 0
69 0
239 -1
J156 3
4 0
70 0
249 -1
J157 3
4 0
71 0
259 -1
J158 3
4 0
72 0
269 -1
J159 3
4 0
73 0
279 -1
J160 3
5 0
75 0
190 -1
J161 3
5 0
76 0
200 -1
J162 3
5 0
77 0
210 -1
J163 3
5 0
78 0
220 -1
J164 3
5 0
79 0
230 -1
J165 3
5 0
80 0
240 -1
J166 3
5 0
81 0
250 -1
J167 3
5 0
82 0
260 -1
J168 3
5 0
83 0
270 -1
J169 3
5 0
84 0
280 -1
J170 3
6 0
86 0
191 -1
J171 3
6 0
87 0
201 -1
J172 3
6 0
88 0
211 -1
J173 3
6 0
89 0
221 -1
J174 3
6 0
90 0
231 -1
J175 3
6 0
91 0
241 -1
J176 3
6 0
92 0
251 -1
J177 3
6 0
93 0
261 -1
J178 3
6 0
94 0
271 -1
J179 3
6 0
95 0
281 -1
J180 3
7 0
97 0
192 -1
J181 3
7 0
98 0
202 -1
J182 3
7 0
99 0
212 -1
J183 3
7 0
100 0
222 -1
J184 3
7 0
101 0
232 -1
J185 3
7 0
102 0
242 -1
J186 3
7 0
103 0
252 -1
J187 3
7 0
104 0
262 -1
J188 3
7 0
105 0
272 -1
J189 3
7 0
106 0
282 -1
J190 3
8 0
108 0
193 -1
J191 3
8 0
109 0
203 -1
J192 3
8 0
110 0
213 -1
J193 3
8 0
111 0
223 -1
J194 3
8 0
112 0
233 -1
J195 3
8 0
113 0
243 -1
J196 3
8 0
114 0
253 -1
J197 3
8 0
115 0
263 -1
J198 3
8 0
116 0
273 -1
J199 3
8 0
117 0
283 -1
J200 3
9 0
119 0
194 -1
J201 3
9 0
120 0
204 -1
J202 3
9 0
121 0
214 -1
J203 3
9 0
122 0
224 -1
J204 3
9 0
123 0
234 -1
J205 3
9 0
124 0
244 -1
J206 3
9 0
125 0
254 -1
J207 3
9 0
126 0
264 -1
J208 3
9 0
127 0
274 -1
J209 3
9 0
128 0
284 -1
J210 3
0 0
30 0
285 -1
J211 3
1 0
41 0
286 -1
J212 3
2 0
52 0
287 -1
J213 3
3 0
63 0
288 -1
J214 3
4 0
74 0
289 -1
J215 3
5 0
85 0
290 -1
J216 3
6 0
96 0
291 -1
J217 3
7 0
107 0
292 -1
J218 3
8 0
118 0
293 -1
J219 3
9 0
129 0
294 -1
J220 11
130 -1
131 -1
132 -1
133 -1
134 -1
135 -1
136 -1
137 -1
138 -1
139 -1
140 -1
J221 11
141 -1
142 -1
143 -1
144 -1
145 -1
146 -1
147 -1
148 -1
149 -1
150 -1
151 -1
J222 11
152 -1
153 -1
154 -1
155 -1
156 -1
157 -1
158 -1
159 -1
160 -1
161 -1
162 -1
J223 11
163 -1
164 -1
165 -1
166 -1
167 -1
168 -1
169 -1
170 -1
171 -1
172 -1
173 -1
J224 11
174 -1
175 -1
176 -1
177 -1
178 -1
179 -1
180 -1
181 -1
182 -1
183 -1
184 -1
J225 16
0 1
131 -1
142 -1
153 -1
164 -1
175 -1
185 -1
186 -1
187 -1
188 -1
189 -1
190 -1
191 -1
192 -1
193 -1
194 -1
J226 16
1 1
132 -1
143 -1
154 -1
165 -1
176 -1
195 -1
196 -1
197 -1
198 -1
199 -1
200 -1
201 -1
202 -1
203 -1
204 -1
J227 16
2 1
133 -1
144 -1
155 -1
166 -1
177 -1
205 -1
206 -1
207 -1
208 -1
209 -1
210 -1
211 -1
212 -1
213 -1
214 -1
J228 16
3 1
134 -1
145 -1
156 -1
167 -1
178 -1
215 -1
216 -1
217 -1
218 -1
219 -1
220 -1
221 -1
222 -1
223 -1
224 -1
J229 16
4 1
135 -1
146 -1
157 -1
168 -1
179 -1
225 -1
226 -1
227 -1
228 -1
229 -1
230 -1
231 -1
232 -1
233 -1
234 -1
J230 16
5 1
136 -1
147 -1
158 -1
169 -1
180 -1
235 -1
236 -1
237 -1
238 -1
239 -1
240 -1
241 -1
242 -1
243 -1
244 -1
J231 16
6 1
137 -1
148 -1
159 -1
170 -1
181 -1
245 -1
246 -1
247 -1
248 -1
249 -1
250 -1
251 -1
252 -1
253 -1
254 -1
J232 16
7 1
138 -1
149 -1
160 -1
171 -1
182 -1
255 -1
256 -1
257 -1
258 -1
259 -1
260 -1
261 -1
262 -1
263 -1
264 -1
J233 16
8 1
139 -1
150 -1
161 -1
172 -1
183 -1
265 -1
266 -1
267 -1
268 -1
269 -1
270 -1
271 -1
272 -1
273 -1
274 -1
J234 16
9 1
140 -1
151 -1
162 -1
173 -1
184 -1
275 -1
276 -1
277 -1
278 -1
279 -1
280 -1
281 -1
282 -1
283 -1
284 -1
J235 12
0 1
185 -1
195 -1
205 -1
215 -1
225 -1
235 -1
245 -1
255 -1
265 -1
275 -1
285 -1
J236 12
1 1
186 -1
196 -1
206 -1
216 -1
226 -1
236 -1
246 -1
256 -1
266 -1
276 -1
286 -1
J237 12
2 1
187 -1
197 -1
207 -1
217 -1
227 -1
237 -1
247 -1
257 -1
267 -1
277 -1
287 -1
J238 12
3 1
188 -1
198 -1
208 -1
218 -1
228 -1
238 -1
248 -1
258 -1
268 -1
278 -1
288 -1
J239 12
4 1
189 -1
199 -1
209 -1
219 -1
229 -1
239 -1
249 -1
259 -1
269 -1
279 -1
289 -1
J240 12
5 1
190 -1
200 -1
210 -1
220 -1
230 -1
240 -1
250 -1
260 -1
270 -1
280 -1
290 -1
J241 12
6 1
191 -1
201 -1
211 -1
221 -1
231 -1
241 -1
251 -1
261 -1
271 -1
281 -1
291 -1
J242 12
7 1
192 -1
202 -1
212 -1
222 -1
232 -1
242 -1
252 -1
262 -1
272 -1
282 -1
292 -1
J243 12
8 1
193 -1
203 -1
213 -1
223 -1
233 -1
243 -1
253 -1
263 -1
273 -1
283 -1
293 -1
J244 12
9 1
194 -1
204 -1
214 -1
224 -1
234 -1
244 -1
254 -1
264 -1
274 -1
284 -1
294 -1
J245 16
130 -1
141 -1
152 -1
163 -1
174 -1
285 -1
286 -1
287 -1
288 -1
289 -1
290 -1
291 -1
292 -1
293 -1
294 -1
295 1
J246 11
296 -1
297 -1
298 -1
299 -1
300 -1
301 -1
302 -1
303 -1
304 -1
305 -1
306 -1
J247 11
307 -1
308 -1
309 -1
310 -1
311 -1
312 -1
313 -1
314 -1
315 -1
316 -1
317 -1
J248 11
318 -1
319 -1
320 -1
321 -1
322 -1
323 -1
324 -1
325 -1
326 -1
327 -1
328 -1
J249 11
329 -1
330 -1
331 -1
332 -1
333 -1
334 -1
335 -1
336 -1
337 -1
338 -1
339 -1
J250 11
340 -1
341 -1
342 -1
343 -1
344 -1
345 -1
346 -1
347 -1
348 -1
349 -1
350 -1
J251 2
297 -1
351 29700
J252 2
298 -1
352 29700
J253 2
299 -1
353 29700
J254 2
300 -1
354 29700
J255 2
301 -1
355 29700
J256 2
302 -1
356 29700
J257 2
303 -1
357 29700
J258 2
304 -1
358 29700
J259 2
305 -1
359 29700
J260 2
306 -1
360 29700
J261 2
308 -1
361 17500
J262 2
309 -1
362 17500
J263 2
310 -1
363 17500
J264 2
311 -1
364 17500
J265 2
312 -1
365 17500
J266 2
313 -1
366 17500
J267 2
314 -1
367 17500
J268 2
315 -1
368 17500
J269 2
316 -1
369 17500
J270 2
317 -1
370 17500
J271 2
319 -1
371 30000
J272 2
320 -1
372 30000
J273 2
321 -1
373 30000
J274 2
322 -1
374 30000
J275 2
323 -1
375 30000
J276 2
324 -1
376 30000
J277 2
325 -1
377 30000
J278 2
326 -1
378 30000
J279 2
327 -1
379 30000
J280 2
328 -1
380 30000
J281 2
330 -1
381 9600
J282 2
331 -1
382 9600
J283 2
332 -1
383 9600
J284 2
333 -1
384 9600
J285 2
334 -1
385 9600
J286 2
335 -1
386 9600
J287 2
336 -1
387 9600
J288 2
337 -1
388 9600
J289 2
338 -1
389 9600
J290 2
339 -1
390 9600
J291 2
341 -1
391 15600
J292 2
342 -1
392 15600
J293 2
343 -1
393 15600
J294 2
344 -1
394 15600
J295 2
345 -1
395 15600
J296 2
346 -1
396 15600
J297 2
347 -1
397 15600
J298 2
348 -1
398 15600
J299 2
349 -1
399 15600
J300 2
350 -1
400 15600
J301 2
296 -1
401 29700
J302 2
307 -1
402 17500
J303 2
318 -1
403 30000
J304 2
329 -1
404 9600
J305 2
340 -1
405 15600
J306 2
131 -1
351 90
J307 2
132 -1
352 90
J308 2
133 -1
353 90
J309 2
134 -1
354 90
J310 2
135 -1
355 90
J311 2
136 -1
356 90
J312 2
137 -1
357 90
J313 2
138 -1
358 90
J314 2
139 -1
359 90
J315 2
140 -1
360 90
J316 2
142 -1
361 350
J317 2
143 -1
362 350
J318 2
144 -1
363 350
J319 2
145 -1
364 350
J320 2
146 -1
365 350
J321 2
147 -1
366 350
J322 2
148 -1
367 350
J323 2
149 -1
368 350
J324 2
150 -1
369 350
J325 2
151 -1
370 350
J326 2
153 -1
371 200
J327 2
154 -1
372 200
J328 2
155 -1
373 200
J329 2
156 -1
374 200
J330 2
157 -1
375 200
J331 2
158 -1
376 200
J332 2
159 -1
377 200
J333 2
160 -1
378 200
J334 2
161 -1
379 200
J335 2
162 -1
380 200
J336 2
164 -1
381 40
J337 2
165 -1
382 40
J338 2
166 -1
383 40
J339 2
167 -1
384 40
J340 2
168 -1
385 40
J341 2
169 -1
386 40
J342 2
170 -1
387 40
J343 2
171 -1
388 40
J344 2
172 -1
389 40
J345 2
173 -1
390 40
J346 2
175 -1
391 130
J347 2
176 -1
392 130
J348 2
177 -1
393 130
J349 2
178 -1
394 130
J350 2
179 -1
395 130
J351 2
180 -1
396 130
J352 2
181 -1
397 130
J353 2
182 -1
398 130
J354 2
183 -1
399 130
J355 2
184 -1
400 130
J356 2
130 -1
401 90
J357 2
141 -1
402 350
J358 2
152 -1
403 200
J359 2
163 -1
404 40
J360 2
174 -1
405 130
J361 11
351 1
352 1
353 1
354 1
355 1
356 1
357 1
358 1
359 1
360 1
401 1
J362 11
361 1
362 1
363 1
364 1
365 1
366 1
367 1
368 1
369 1
370 1
402 1
J363 11
371 1
372 1
373 1
374 1
375 1
376 1
377 1
378 1
379 1
380 1
403 1
J364 11
381 1
382 1
383 1
384 1
385 1
386 1
387 1
388 1
389 1
390 1
404 1
J365 11
391 1
392 1
393 1
394 1
395 1
396 1
397 1
398 1
399 1
400 1
405 1
J366 16
0 -30
297 1
308 1
319 1
330 1
341 1
406 1
407 1
408 1
409 1
410 1
411 1
412 1
413 1
414 1
415 1
J367 16
1 -100
298 1
309 1
320 1
331 1
342 1
416 1
417 1
418 1
419 1
420 1
421 1
422 1
423 1
424 1
425 1
J368 16
2 -50
299 1
310 1
321 1
332 1
343 1
426 1
427 1
428 1
429 1
430 1
431 1
432 1
433 1
434 1
435 1
J369 16
3 -227
300 1
311 1
322 1
333 1
344 1
436 1
437 1
438 1
439 1
440 1
441 1
442 1
443 1
444 1
445 1
J370 16
4 -100
301 1
312 1
323 1
334 1
345 1
446 1
447 1
448 1
449 1
450 1
451 1
452 1
453 1
454 1
455 1
J371 16
5 -300
302 1
313 1
324 1
335 1
346 1
456 1
457 1
458 1
459 1
460 1
461 1
462 1
463 1
464 1
465 1
J372 16
6 -12
303 1
314 1
325 1
336 1
347 1
466 1
467 1
468 1
469 1
470 1
471 1
472 1
473 1
474 1
475 1
J373 16
7 -970
304 1
315 1
326 1
337 1
348 1
476 1
477 1
478 1
479 1
480 1
481 1
482 1
483 1
484 1
485 1
J374 16
8 -20
305 1
316 1
327 1
338 1
349 1
486 1
487 1
488 1
489 1
490 1
491 1
492 1
493 1
494 1
495 1
J375 16
9 -250
306 1
317 1
328 1
339 1
350 1
496 1
497 1
498 1
499 1
500 1
501 1
502 1
503 1
504 1
505 1
J376 16
10 -1
297 0.05
308 0.05
319 0.05
330 0.05
341 0.05
406 0.05
407 0.05
408 0.05
409 0.05
410 0.05
411 0.05
412 0.05
413 0.05
414 0.05
415 0.05
J377 16
11 -1
298 0.2
309 0.2
320 0.2
331 0.2
342 0.2
416 0.2
417 0.2
418 0.2
419 0.2
420 0.2
421 0.2
422 0.2
423 0.2
424 0.2
425 0.2
J378 16
12 -1
299 0.15
310 0.15
321 0.15
332 0.15
343 0.15
426 0.15
427 0.15
428 0.15
429 0.15
430 0.15
431 0.15
432 0.15
433 0.15
434 0.15
435 0.15
J379 16
13 -1
300 0.88
311 0.88
322 0.88
333 0.88
344 0.88
436 0.88
437 0.88
438 0.88
439 0.88
440 0.88
441 0.88
442 0.88
443 0.88
444 0.88
445 0.88
J380 16
14 -1
301 0.7
312 0.7
323 0.7
334 0.7
345 0.7
446 0.7
447 0.7
448 0.7
449 0.7
450 0.7
451 0.7
452 0.7
453 0.7
454 0.7
455 0.7
J381 16
15 -1
302 0.4
313 0.4
324 0.4
335 0.4
346 0.4
456 0.4
457 0.4
458 0.4
459 0.4
460 0.4
461 0.4
462 0.4
463 0.4
464 0.4
465 0.4
J382 16
16 -1
303 0.33
314 0.33
325 0.33
336 0.33
347 0.33
466 0.33
467 0.33
468 0.33
469 0.33
470 0.33
471 0.33
472 0.33
473 0.33
474 0.33
475 0.33
J383 16
17 -1
304 0.3
315 0.3
326 0.3
337 0.3
348 0.3
476 0.3
477 0.3
478 0.3
479 0.3
480 0.3
481 0.3
482 0.3
483 0.3
484 0.3
485 0.3
J384 16
18 -1
305 0.4
316 0.4
327 0.4
338 0.4
349 0.4
486 0.4
487 0.4
488 0.4
489 0.4
490 0.4
491 0.4
492 0.4
493 0.4
494 0.4
495 0.4
J385 16
19 -1
306 0.3
317 0.3
328 0.3
339 0.3
350 0.3
496 0.3
497 0.3
498 0.3
499 0.3
500 0.3
501 0.3
502 0.3
503 0.3
504 0.3
505 0.3
J386 12
10 1
406 -1
416 -1
426 -1
436 -1
446 -1
456 -1
466 -1
476 -1
486 -1
496 -1
506 -1
J387 12
11 1
407 -1
417 -1
427 -1
437 -1
447 -1
457 -1
467 -1
477 -1
487 -1
497 -1
507 -1
J388 12
12 1
408 -1
418 -1
428 -1
438 -1
448 -1
458 -1
468 -1
478 -1
488 -1
498 -1
508 -1
J389 12
13 1
409 -1
419 -1
429 -1
439 -1
449 -1
459 -1
469 -1
479 -1
489 -1
499 -1
509 -1
J390 12
14 1
410 -1
420 -1
430 -1
440 -1
450 -1
460 -1
470 -1
480 -1
490 -1
500 -1
510 -1
J391 12
15 1
411 -1
421 -1
431 -1
441 -1
451 -1
461 -1
471 -1
481 -1
491 -1
501 -1
511 -1
J392 12
16 1
412 -1
422 -1
432 -1
442 -1
452 -1
462 -1
472 -1
482 -1
492 -1
502 -1
512 -1
J393 12
17 1
413 -1
423 -1
433 -1
443 -1
453 -1
463 -1
473 -1
483 -1
493 -1
503 -1
513 -1
J394 12
18 1
414 -1
424 -1
434 -1
444 -1
454 -1
464 -1
474 -1
484 -1
494 -1
504 -1
514 -1
J395 12
19 1
415 -1
425 -1
435 -1
445 -1
455 -1
465 -1
475 -1
485 -1
495 -1
505 -1
515 -1
J396 11
20 1
21 1
22 1
23 1
24 1
25 1
26 1
27 1
28 1
29 1
30 1
J397 11
31 1
32 1
33 1
34 1
35 1
36 1
37 1
38 1
39 1
40 1
41 1
J398 11
42 1
43 1
44 1
45 1
46 1
47 1
48 1
49 1
50 1
51 1
52 1
J399 11
53 1
54 1
55 1
56 1
57 1
58 1
59 1
60 1
61 1
62 1
63 1
J400 11
64 1
65 1
66 1
67 1
68 1
69 1
70 1
71 1
72 1
73 1
74 1
J401 11
75 1
76 1
77 1
78 1
79 1
80 1
81 1
82 1
83 1
84 1
85 1
J402 11
86 1
87 1
88 1
89 1
90 1
91 1
92 1
93 1
94 1
95 1
96 1
J403 11
97 1
98 1
99 1
100 1
101 1
102 1
103 1
104 1
105 1
106 1
107 1
J404 11
108 1
109 1
110 1
111 1
112 1
113 1
114 1
115 1
116 1
117 1
118 1
J405 11
119 1
120 1
121 1
122 1
123 1
124 1
125 1
126 1
127 1
128 1
129 1
J406 16
295 -10
296 1
307 1
318 1
329 1
340 1
506 1
507 1
508 1
509 1
510 1
511 1
512 1
513 1
514 1
515 1
G0 10
0 1
1 1
2 1
3 1
4 1
5 1
6 1
7 1
8 1
9 1
